NAME          COPTPROB
OBJSENSE
  MIN
ROWS
 N  __OBJ___
 L  C23     
 L  C55     
 L  C73     
 L  C78     
 L  C110    
 L  C123    
 L  C187    
COLUMNS
    MARKER    'MARKER'                 'INTORG'
    x1        __OBJ___  239
    x1        C78       -1
    x1        C123      -1
    x153      __OBJ___  337
    x153      C55       -1
    x153      C187      -1
    x191      __OBJ___  124
    x191      C23       -1
    x232      __OBJ___  201
    x232      C187      -1
    x378      __OBJ___  34
    x378      C110      -1
    x385      __OBJ___  64
    x385      C73       -1
    x385      C78       -1
    x429      __OBJ___  228
    x429      C110      -1
    x429      C187      -1
    x526      __OBJ___  284
    x526      C23       -1
    x526      C123      -1
    x542      __OBJ___  145
    x542      C23       -1
    x542      C110      -1
    x632      __OBJ___  193
    x632      C123      -1
    x792      __OBJ___  223
    x792      C55       -1
    x792      C73       -1
    MARKER    'MARKER'                 'INTEND'
RHS
    RHS       __OBJ___  -16594
    RHS       C23       -1
    RHS       C55       -1
    RHS       C73       -1
    RHS       C78       -1
    RHS       C110      -1
    RHS       C123      -1
    RHS       C187      -1
BOUNDS
 UP BOUND     x1        1
 UP BOUND     x153      1
 UP BOUND     x191      1
 UP BOUND     x232      1
 UP BOUND     x378      1
 UP BOUND     x385      1
 UP BOUND     x429      1
 UP BOUND     x526      1
 UP BOUND     x542      1
 UP BOUND     x632      1
 UP BOUND     x792      1
ENDATA
